p cnf 78 97
-1 65 -66 -69 -72 -73 -74 0 
-2 11 21 31 48 53 54 66 -69 -72 -73 -74 0 
-3 52 67 -66 -69 -72 -73 -74 0 
-4 67 -66 -69 -72 -73 -74 0 
-5 -1 67 -66 -69 -72 -73 -74 0 
-6 9 15 25 28 49 -7 67 -66 -69 -72 -73 -74 0 
-8 10 67 -66 -69 -72 -73 -74 0 
-5 68 -75 -76 -77 -78 0 
-9 6 15 25 28 49 66 -69 -72 -73 -74 0 
-6 9 15 25 28 49 -10 8 67 -66 -69 -72 -73 -74 0 
-11 2 21 31 48 53 54 -12 14 18 69 -66 -72 -73 -74 0 
-13 38 -14 12 18 69 -66 -72 -73 -74 0 
-15 6 9 25 28 49 69 -66 -72 -73 -74 0 
-11 2 21 31 48 53 54 -16 19 57 69 -66 -72 -73 -74 0 
-17 63 -18 12 14 69 -66 -72 -73 -74 0 
-13 38 -12 14 18 69 -66 -72 -73 -74 0 
-13 38 -19 16 57 69 -66 -72 -73 -74 0 
-1 67 -66 -69 -72 -73 -74 0 
-1 70 -66 -69 -72 -73 -74 0 
-20 67 -66 -69 -72 -73 -74 0 
-21 2 11 31 48 53 54 -22 70 -66 -69 -72 -73 -74 0 
-23 71 0 
-7 71 0 
-24 71 0 
-25 6 9 15 28 49 72 -66 -69 -73 -74 0 
-26 67 -66 -69 -72 -73 -74 0 
-1 -27 67 -66 -69 -72 -73 -74 0 
-20 -27 67 -66 -69 -72 -73 -74 0 
-28 6 9 15 25 49 73 -66 -69 -72 -74 0 
-10 8 -29 35 69 -66 -72 -73 -74 0 
-13 38 -30 69 -66 -72 -73 -74 0 
-31 2 11 21 48 53 54 73 -66 -69 -72 -74 0 
-26 -27 67 -66 -69 -72 -73 -74 0 
-32 71 0 
-7 72 -66 -69 -73 -74 0 
-10 8 71 0 
-13 38 72 -66 -69 -73 -74 0 
-5 71 0 
-33 -34 74 -66 -69 -72 -73 0 
-35 29 71 0 
-36 71 0 
-37 71 0 
-38 13 -39 -34 67 -66 -69 -72 -73 -74 0 
-40 50 -41 -42 47 -43 74 -66 -69 -72 -73 0 
-16 19 57 -44 64 -40 50 -33 67 -66 -69 -72 -73 -74 0 
-40 50 72 -66 -69 -73 -74 0 
-45 -18 12 14 72 -66 -69 -73 -74 0 
-23 72 -66 -69 -73 -74 0 
-1 -27 70 -66 -69 -72 -73 -74 0 
-26 70 -66 -69 -72 -73 -74 0 
-46 -47 42 72 -66 -69 -73 -74 0 
-34 74 -66 -69 -72 -73 0 
-24 72 -66 -69 -73 -74 0 
-48 2 11 21 31 53 54 72 -66 -69 -73 -74 0 
-16 19 57 71 0 
-49 6 9 15 25 28 73 -66 -69 -72 -74 0 
-10 8 72 -66 -69 -73 -74 0 
-50 40 72 -66 -69 -73 -74 0 
-45 72 -66 -69 -73 -74 0 
-35 29 75 -68 -76 -77 -78 0 
-38 13 75 -68 -76 -77 -78 0 
-21 2 11 31 48 53 54 75 -68 -76 -77 -78 0 
-45 75 -68 -76 -77 -78 0 
-37 75 -68 -76 -77 -78 0 
-51 58 -47 42 72 -66 -69 -73 -74 0 
-34 74 -66 -69 -72 -73 0 
-20 70 -66 -69 -72 -73 -74 0 
-21 2 11 31 48 53 54 -4 70 -66 -69 -72 -73 -74 0 
-5 -1 70 -66 -69 -72 -73 -74 0 
-40 50 76 -68 -75 -77 -78 0 
-52 3 77 -68 -75 -76 -78 0 
-53 2 11 21 31 48 54 77 -68 -75 -76 -78 0 
-32 -15 6 9 25 28 49 69 -66 -72 -73 -74 0 
-54 2 11 21 31 48 53 73 -66 -69 -72 -74 0 
-15 6 9 25 28 49 -14 12 18 69 -66 -72 -73 -74 0 
-15 6 9 25 28 49 -12 14 18 69 -66 -72 -73 -74 0 
-10 8 -14 12 18 69 -66 -72 -73 -74 0 
-35 29 -4 70 -66 -69 -72 -73 -74 0 
-4 65 -66 -69 -72 -73 -74 0 
-36 -26 70 -66 -69 -72 -73 -74 0 
-20 65 -66 -69 -72 -73 -74 0 
-32 -1 70 -66 -69 -72 -73 -74 0 
-55 56 67 -66 -69 -72 -73 -74 0 
-56 55 67 -66 -69 -72 -73 -74 0 
-17 63 -57 16 19 69 -66 -72 -73 -74 0 
-15 6 9 25 28 49 -57 16 19 69 -66 -72 -73 -74 0 
-13 38 -58 51 69 -66 -72 -73 -74 0 
-15 6 9 25 28 49 -59 69 -66 -72 -73 -74 0 
-11 2 21 31 48 53 54 69 -66 -72 -73 -74 0 
-10 8 -60 69 -66 -72 -73 -74 0 
-61 -12 14 18 69 -66 -72 -73 -74 0 
-18 12 14 -17 63 69 -66 -72 -73 -74 0 
-62 -63 17 69 -66 -72 -73 -74 0 
-15 6 9 25 28 49 -37 69 -66 -72 -73 -74 0 
-47 42 72 -66 -69 -73 -74 0 
-47 42 78 -68 -75 -76 -77 0 
-16 19 57 -64 44 77 -68 -75 -76 -78 0 
